p td 80 33 
69 47
35 40
35 47
35 52
19 5
31 9
31 18
6 56
6 75
7 73
21 50
28 50
61 76
74 73
77 60
23 18
51 73
26 60
43 73
33 3
33 47
44 12
11 65
37 12
37 14
2 65
2 72
64 39
64 72
71 9
54 60
34 12
67 52
